17	4	3
20	7	16	13	39	26	47	
0	0	0	0	0	1	5	8	7	5	1	3	2	3	4
2	8	0	0	0	1	9	7	1	7	1	2	5	13
9	7	0	0	0	8	2	2	4	10	8	3	6	11	17
8	5	0	0	0	3	2	7	10	1	4	3	9	12	14
7	0	0	2	0	10	4	2	4	6	9	3	8	16	17
175	2	0	0	0	7	7	3	4	3	7	3	7	8	17
150	1	0	0	0	4	4	6	1	5	2	2	10	17
75	0	0	0	6	1	2	3	2	6	3	1	17
100	10	0	0	0	10	8	4	6	7	5	1	17
50	0	0	6	0	10	6	9	1	10	4	1	17
75	0	0	0	8	9	6	1	2	10	4	1	15
150	2	0	0	0	8	3	7	3	3	1	1	15
7	0	0	0	6	5	4	3	8	6	8	1	17
3	10	0	0	0	10	5	6	4	10	3	1	17
2	3	0	0	0	9	9	9	7	10	8	1	17
1	0	7	0	0	1	9	4	1	10	3	1	17
0	0	0	0	0	4	7	6	1	10	9	0
